\ LP format - for model browsing. Use MPS format to capture full model detail.
Maximize
obj:   x[1] + x[96] + x[64] + x[68] + x[69] + x[8] + x[18] + x[110] + x[47]
   + x[112] + x[50] + x[84] + x[142] + x[86] + x[59] + x[28] + x[61]
   + x[101] + x[2] + x[65] + x[130] + x[99] + x[72] + x[14] + x[79] + x[81]
   + x[57] + x[60] + x[3] + x[83] + x[49] + x[71] + x[9] + x[103] + x[44]
   + x[143] + x[144] + x[113] + x[146] + x[115] + x[54] + x[105] + x[15]
   + x[29] + x[150] + x[4] + x[10] + x[148] + x[23] + x[38] + x[40] + x[56]
   + x[66] + x[70] + x[74] + x[78] + x[85] + x[93] + x[107] + x[114]
   + x[118] + x[120] + x[124] + x[5] + x[129] + x[6] + x[7] + x[104]
   + x[42] + x[17] + x[21] + x[32] + x[98] + x[131] + x[102] + x[139]
   + x[140] + x[116] + x[62] + x[22] + x[121] + x[126] + x[34] + x[67]
   + x[45] + x[141] + x[26] + x[147] + x[122] + x[125] + x[135] + x[12]
   + x[145] + x[24] + x[41] + x[76] + x[77] + x[25] + x[94] + x[117]
   + x[19] + x[36] + x[55] + x[11] + x[109] + x[51] + x[73] + x[20] + x[35]
   + x[31] + x[92] + x[138] + x[95] + x[133] + x[89] + x[13] + x[100]
   + x[111] + x[80] + x[149] + x[27] + x[16] + x[52] + x[91] + x[106]
   + x[88] + x[137] + x[43] + x[90] + x[58] + x[134] + x[82] + x[39]
   + x[63] + x[75] + x[123] + x[33] + x[53] + x[30] + x[46] + x[136]
   + x[48] + x[127] + x[132] + x[97] + x[87] + x[37] + x[128] + x[119]
   + x[108]
Subject To
 clq1: x[113] + x[10] + x[55] <= 1
 clq2: x[4] + x[56] + x[78] <= 1
 clq3: x[4] + x[74] + x[124] <= 1
 clq4: x[113] + x[6] + x[140] <= 1
 clq5: x[57] + x[4] + x[38] <= 1
 clq6: x[56] + x[22] <= 1
 clq7: x[74] + x[31] + x[46] <= 1
 clq8: x[85] + x[42] + x[41] + x[77] <= 1
 clq9: x[142] + x[7] + x[122] <= 1
 clq10: x[3] + x[113] <= 1
 clq11: x[56] + x[32] + x[52] <= 1
 clq12: x[84] + x[57] + x[137] <= 1
 clq13: x[72] + x[4] + x[70] <= 1
 clq14: x[113] + x[11] <= 1
 clq15: x[29] + x[74] + x[55] <= 1
 clq16: x[114] + x[89] + x[137] <= 1
 clq17: x[1] + x[68] <= 1
 clq18: x[142] + x[115] + x[31] <= 1
 clq19: x[113] + x[36] + x[123] <= 1
 clq20: x[110] + x[56] + x[46] + x[127] <= 1
 clq21: x[72] + x[7] <= 1
 clq22: x[98] + x[22] + x[41] <= 1
 clq23: x[143] + x[134] <= 1
 clq24: x[96] + x[60] + x[94] <= 1
 clq25: x[68] + x[3] <= 1
 clq26: x[57] + x[11] <= 1
 clq27: x[10] + x[66] + x[70] + x[51] <= 1
 clq28: x[68] + x[74] + x[53] + x[119] <= 1
 clq29: x[79] + x[6] + x[62] <= 1
 clq30: x[7] + x[102] + x[147] <= 1
 clq31: x[77] + x[89] + x[87] <= 1
 clq32: x[121] + x[73] + x[27] <= 1
 clq33: x[72] + x[137] + x[134] <= 1
 clq34: x[133] + x[82] + x[97] <= 1
 clq35: x[1] + x[142] <= 1
 clq36: x[84] + x[42] <= 1
 clq37: x[57] + x[54] <= 1
 clq38: x[3] + x[71] + x[146] <= 1
 clq39: x[9] + x[41] <= 1
 clq40: x[112] + x[143] + x[4] + x[66] <= 1
 clq41: x[113] + x[118] + x[90] <= 1
 clq42: x[104] + x[116] + x[48] <= 1
 clq43: x[32] + x[13] + x[149] <= 1
 clq44: x[84] + x[55] + x[89] <= 1
 clq45: x[10] + x[41] + x[11] <= 1
 clq46: x[1] + x[69] + x[8] <= 1
 clq47: x[96] + x[44] + x[39] <= 1
 clq48: x[142] + x[9] + x[102] <= 1
 clq49: x[59] + x[9] + x[98] <= 1
 clq50: x[65] + x[147] + x[91] <= 1
 clq51: x[57] + x[115] + x[36] <= 1
 clq52: x[54] + x[56] + x[145] <= 1
 clq53: x[23] + x[134] <= 1
 clq54: x[72] + x[114] + x[58] <= 1
 clq55: x[6] + x[131] + x[22] <= 1
 clq56: x[86] + x[7] + x[125] <= 1
 clq57: x[74] + x[42] + x[94] <= 1
 clq58: x[62] + x[122] + x[117] <= 1
 clq59: x[26] + x[122] + x[77] <= 1
 clq60: x[25] + x[30] + x[136] <= 1
 clq61: x[129] + x[31] + x[87] <= 1
 clq62: x[86] + x[113] + x[27] <= 1
 clq63: x[44] + x[38] + x[82] <= 1
 clq64: x[110] + x[51] + x[63] <= 1
 clq65: x[50] + x[104] <= 1
 clq66: x[61] + x[73] <= 1
 clq67: x[3] + x[105] <= 1
 clq68: x[71] + x[90] + x[48] <= 1
 clq69: x[146] + x[23] + x[116] <= 1
 clq70: x[118] + x[125] + x[135] <= 1
 clq71: x[4] + x[120] <= 1
 clq72: x[5] + x[7] + x[21] <= 1
 clq73: x[70] + x[32] + x[147] <= 1
 clq74: x[47] + x[140] + x[134] <= 1
 clq75: x[18] + x[55] + x[137] <= 1
 clq76: x[150] + x[11] + x[31] <= 1
 clq77: x[65] + x[20] <= 1
 clq78: x[98] + x[145] + x[13] <= 1
 clq79: x[110] + x[88] + x[123] <= 1
 clq80: x[41] + x[111] + x[53] <= 1
 clq81: x[40] + x[76] + x[128] <= 1
 clq82: x[1] + x[50] <= 1
 clq83: x[1] + x[96] + x[61] <= 1
 clq84: x[68] + x[5] + x[6] <= 1
 clq85: x[69] + x[83] + x[71] <= 1
 clq86: x[84] + x[25] + x[19] <= 1
 clq87: x[142] + x[46] + x[132] <= 1
 clq88: x[59] + x[81] + x[97] <= 1
 clq89: x[57] + x[32] + x[58] <= 1
 clq90: x[60] + x[73] <= 1
 clq91: x[3] + x[143] + x[15] <= 1
 clq92: x[54] + x[20] <= 1
 clq93: x[56] + x[94] <= 1
 clq94: x[130] + x[85] + x[62] <= 1
 clq95: x[114] + x[30] <= 1
 clq96: x[120] + x[139] + x[116] <= 1
 clq97: x[81] + x[124] + x[89] <= 1
 clq98: x[104] + x[133] <= 1
 clq99: x[113] + x[5] + x[42] <= 1
 clq100: x[22] + x[39] + x[123] <= 1
 clq101: x[105] + x[26] <= 1
 clq102: x[38] + x[77] + x[133] <= 1
 clq103: x[148] + x[36] + x[137] + x[87] <= 1
 clq104: x[65] + x[105] + x[27] <= 1
 clq105: x[72] + x[82] <= 1
 clq106: x[135] + x[111] + x[119] <= 1
 clq107: x[64] + x[129] <= 1
 clq108: x[8] + x[74] <= 1
 clq109: x[50] + x[73] <= 1
 clq110: x[60] + x[4] + x[114] <= 1
 clq111: x[103] + x[48] <= 1
 clq112: x[54] + x[13] + x[80] <= 1
 clq113: x[10] + x[114] + x[20] <= 1
 clq114: x[23] + x[77] + x[53] <= 1
 clq115: x[144] + x[56] + x[55] <= 1
 clq116: x[93] + x[12] <= 1
 clq117: x[118] + x[88] <= 1
 clq118: x[6] + x[104] + x[121] <= 1
 clq119: x[79] + x[21] + x[26] <= 1
 clq120: x[120] + x[102] <= 1
 clq121: x[140] + x[121] + x[51] <= 1
 clq122: x[94] + x[27] + x[30] <= 1
 clq123: x[11] + x[92] <= 1
 clq124: x[74] + x[91] <= 1
 clq125: x[31] + x[134] + x[48] <= 1
 clq126: x[109] + x[82] <= 1
 clq127: x[103] + x[77] + x[128] <= 1
 clq128: x[96] + x[70] + x[93] <= 1
 clq129: x[64] + x[42] <= 1
 clq130: x[68] + x[78] <= 1
 clq131: x[69] + x[7] <= 1
 clq132: x[8] + x[12] <= 1
 clq133: x[18] + x[98] <= 1
 clq134: x[50] + x[54] + x[75] <= 1
 clq135: x[84] + x[70] + x[122] <= 1
 clq136: x[142] + x[83] <= 1
 clq137: x[59] + x[132] <= 1
 clq138: x[28] + x[102] + x[88] <= 1
 clq139: x[61] + x[76] + x[11] <= 1
 clq140: x[72] + x[3] + x[9] <= 1
 clq141: x[57] + x[46] <= 1
 clq142: x[143] + x[91] + x[119] <= 1
 clq143: x[115] + x[58] <= 1
 clq144: x[150] + x[26] + x[41] <= 1
 clq145: x[40] + x[139] <= 1
 clq146: x[85] + x[106] <= 1
 clq147: x[118] + x[124] <= 1
 clq148: x[129] + x[62] <= 1
 clq149: x[22] + x[149] + x[90] <= 1
 clq150: x[147] + x[145] + x[133] <= 1
 clq151: x[125] + x[19] + x[82] <= 1
 clq152: x[9] + x[25] + x[117] <= 1
 clq153: x[131] + x[73] + x[58] <= 1
 clq154: x[36] + x[92] <= 1
 clq155: x[68] + x[89] <= 1
 clq156: x[140] + x[39] + x[136] <= 1
 clq157: x[1] + x[110] <= 1
 clq158: x[64] + x[37] <= 1
 clq159: x[69] + x[113] <= 1
 clq160: x[96] + x[8] + x[135] <= 1
 clq161: x[18] + x[104] <= 1
 clq162: x[47] + x[42] <= 1
 clq163: x[112] + x[132] <= 1
 clq164: x[142] + x[120] <= 1
 clq165: x[86] + x[40] <= 1
 clq166: x[59] + x[12] <= 1
 clq167: x[2] + x[65] <= 1
 clq168: x[57] + x[109] + x[123] <= 1
 clq169: x[60] + x[13] + x[100] <= 1
 clq170: x[61] + x[83] + x[66] <= 1
 clq171: x[49] + x[116] + x[67] <= 1
 clq172: x[71] + x[98] <= 1
 clq173: x[44] + x[134] <= 1
 clq174: x[115] + x[53] <= 1
 clq175: x[29] + x[32] + x[80] <= 1
 clq176: x[4] + x[10] + x[118] <= 1
 clq177: x[23] + x[30] <= 1
 clq178: x[56] + x[92] + x[111] <= 1
 clq179: x[74] + x[100] + x[43] <= 1
 clq180: x[65] + x[78] + x[62] <= 1
 clq181: x[85] + x[97] <= 1
 clq182: x[124] + x[73] + x[128] <= 1
 clq183: x[110] + x[129] + x[33] <= 1
 clq184: x[7] + x[139] <= 1
 clq185: x[21] + x[106] <= 1
 clq186: x[131] + x[45] + x[55] <= 1
 clq187: x[94] + x[46] <= 1
 clq188: x[51] + x[20] <= 1
 clq189: x[101] + x[89] <= 1
 clq190: x[34] + x[52] <= 1
 clq191: x[39] + x[127] <= 1
 clq192: x[1] + x[47] + x[86] <= 1
 clq193: x[64] + x[104] <= 1
 clq194: x[68] + x[120] + x[37] <= 1
 clq195: x[69] + x[75] <= 1
 clq196: x[18] + x[106] <= 1
 clq197: x[112] + x[82] <= 1
 clq198: x[50] + x[2] + x[130] <= 1
 clq199: x[84] + x[105] <= 1
 clq200: x[142] + x[133] + x[137] <= 1
 clq201: x[18] + x[59] + x[20] <= 1
 clq202: x[28] + x[12] + x[133] <= 1
 clq203: x[72] + x[117] + x[11] <= 1
 clq204: x[79] + x[30] <= 1
 clq205: x[81] + x[135] + x[145] <= 1
 clq206: x[3] + x[103] <= 1
 clq207: x[71] + x[115] <= 1
 clq208: x[44] + x[45] + x[25] <= 1
 clq209: x[143] + x[42] + x[100] <= 1
 clq210: x[113] + x[46] <= 1
 clq211: x[146] + x[119] <= 1
 clq212: x[15] + x[38] <= 1
 clq213: x[150] + x[127] <= 1
 clq214: x[23] + x[122] <= 1
 clq215: x[40] + x[74] + x[98] <= 1
 clq216: x[85] + x[149] <= 1
 clq217: x[29] + x[93] + x[53] <= 1
 clq218: x[6] + x[102] <= 1
 clq219: x[7] + x[141] <= 1
 clq220: x[69] + x[21] <= 1
 clq221: x[139] + x[51] <= 1
 clq222: x[15] + x[22] + x[27] <= 1
 clq223: x[126] + x[134] <= 1
 clq224: x[147] + x[52] + x[58] <= 1
 clq225: x[139] + x[125] + x[31] <= 1
 clq226: x[129] + x[41] <= 1
 clq227: x[94] + x[48] <= 1
 clq228: x[36] + x[20] + x[39] <= 1
 clq229: x[95] + x[134] <= 1
 clq230: x[89] + x[75] <= 1
 clq231: x[91] + x[88] + x[90] <= 1
 clq232: x[103] + x[132] <= 1
 clq233: x[102] + x[87] <= 1
 clq234: x[64] + x[97] <= 1
 clq235: x[8] + x[6] <= 1
 clq236: x[112] + x[27] + x[43] <= 1
 clq237: x[84] + x[10] <= 1
 clq238: x[101] + x[71] <= 1
 clq239: x[79] + x[4] <= 1
 clq240: x[57] + x[107] <= 1
 clq241: x[60] + x[132] <= 1
 clq242: x[3] + x[144] <= 1
 clq243: x[83] + x[106] <= 1
 clq244: x[49] + x[38] <= 1
 clq245: x[113] + x[34] <= 1
 clq246: x[146] + x[80] <= 1
 clq247: x[115] + x[141] + x[119] <= 1
 clq248: x[54] + x[19] <= 1
 clq249: x[105] + x[128] <= 1
 clq250: x[150] + x[13] <= 1
 clq251: x[148] + x[12] + x[89] <= 1
 clq252: x[23] + x[118] <= 1
 clq253: x[56] + x[136] <= 1
 clq254: x[66] + x[5] <= 1
 clq255: x[78] + x[82] + x[30] <= 1
 clq256: x[4] + x[85] <= 1
 clq257: x[114] + x[21] <= 1
 clq258: x[124] + x[140] <= 1
 clq259: x[7] + x[26] <= 1
 clq260: x[104] + x[95] <= 1
 clq261: x[6] + x[32] <= 1
 clq262: x[116] + x[137] <= 1
 clq263: x[40] + x[62] + x[126] <= 1
 clq264: x[121] + x[109] <= 1
 clq265: x[131] + x[122] + x[75] <= 1
 clq266: x[41] + x[46] <= 1
 clq267: x[38] + x[94] <= 1
 clq268: x[55] + x[37] <= 1
 clq269: x[51] + x[92] <= 1
 clq270: x[101] + x[149] <= 1
 clq271: x[65] + x[48] <= 1
 clq272: x[34] + x[127] <= 1
 clq273: x[124] + x[87] <= 1
 clq274: x[1] + x[84] <= 1
 clq275: x[96] + x[102] <= 1
 clq276: x[64] + x[79] <= 1
 clq277: x[68] + x[81] <= 1
 clq278: x[69] + x[97] <= 1
 clq279: x[8] + x[70] <= 1
 clq280: x[110] + x[21] + x[98] <= 1
 clq281: x[47] + x[104] <= 1
 clq282: x[50] + x[13] <= 1
 clq283: x[142] + x[117] <= 1
 clq284: x[86] + x[114] + x[128] <= 1
 clq285: x[59] + x[76] <= 1
 clq286: x[28] + x[78] + x[111] <= 1
 clq287: x[61] + x[7] <= 1
 clq288: x[2] + x[72] <= 1
 clq289: x[57] + x[52] <= 1
 clq290: x[60] + x[82] + x[46] <= 1
 clq291: x[3] + x[44] <= 1
 clq292: x[83] + x[35] <= 1
 clq293: x[49] + x[36] <= 1
 clq294: x[71] + x[129] <= 1
 clq295: x[9] + x[77] <= 1
 clq296: x[103] + x[5] + x[17] <= 1
 clq297: x[143] + x[109] <= 1
 clq298: x[144] + x[147] + x[135] <= 1
 clq299: x[113] + x[107] <= 1
 clq300: x[146] + x[11] <= 1
 clq301: x[54] + x[106] + x[119] <= 1
 clq302: x[105] + x[33] <= 1
 clq303: x[150] + x[16] <= 1
 clq304: x[10] + x[73] <= 1
 clq305: x[23] + x[63] <= 1
 clq306: x[81] + x[56] + x[19] <= 1
 clq307: x[66] + x[25] <= 1
 clq308: x[85] + x[90] <= 1
 clq309: x[93] + x[26] <= 1
 clq310: x[50] + x[118] + x[149] <= 1
 clq311: x[120] + x[136] <= 1
 clq312: x[42] + x[51] <= 1
 clq313: x[32] + x[31] <= 1
 clq314: x[129] + x[140] <= 1
 clq315: x[6] + x[116] <= 1
 clq316: x[22] + x[125] <= 1
 clq317: x[121] + x[80] <= 1
 clq318: x[65] + x[41] <= 1
 clq319: x[9] + x[94] <= 1
 clq320: x[49] + x[102] + x[55] <= 1
 clq321: x[69] + x[92] <= 1
 clq322: x[25] + x[95] + x[127] <= 1
 clq323: x[67] + x[91] <= 1
 clq324: x[88] + x[137] <= 1
 clq325: x[29] + x[134] + x[97] <= 1
 clq326: x[123] + x[48] <= 1
 clq327: x[105] + x[53] <= 1
 clq328: x[136] + x[132] <= 1
 clq329: x[47] + x[87] <= 1
 clq330: x[1] + x[101] <= 1
 clq331: x[96] + x[41] <= 1
 clq332: x[64] + x[83] <= 1
 clq333: x[68] + x[45] <= 1
 clq334: x[8] + x[145] <= 1
 clq335: x[18] + x[43] <= 1
 clq336: x[112] + x[70] <= 1
 clq337: x[84] + x[37] <= 1
 clq338: x[142] + x[34] <= 1
 clq339: x[59] + x[116] <= 1
 clq340: x[61] + x[71] <= 1
 clq341: x[2] + x[99] <= 1
 clq342: x[72] + x[35] <= 1
 clq343: x[14] + x[44] <= 1
 clq344: x[79] + x[140] + x[128] <= 1
 clq345: x[68] + x[57] + x[125] <= 1
 clq346: x[3] + x[115] <= 1
 clq347: x[143] + x[139] + x[37] <= 1
 clq348: x[113] + x[16] <= 1
 clq349: x[146] + x[120] <= 1
 clq350: x[15] + x[42] <= 1
 clq351: x[150] + x[33] <= 1
 clq352: x[4] + x[107] <= 1
 clq353: x[10] + x[36] <= 1
 clq354: x[148] + x[132] <= 1
 clq355: x[23] + x[33] <= 1
 clq356: x[38] + x[109] <= 1
 clq357: x[66] + x[26] <= 1
 clq358: x[74] + x[51] <= 1
 clq359: x[85] + x[13] <= 1
 clq360: x[93] + x[124] <= 1
 clq361: x[7] + x[126] <= 1
 clq362: x[104] + x[24] <= 1
 clq363: x[32] + x[39] <= 1
 clq364: x[62] + x[94] <= 1
 clq365: x[22] + x[58] <= 1
 clq366: x[121] + x[138] <= 1
 clq367: x[141] + x[11] <= 1
 clq368: x[141] + x[122] <= 1
 clq369: x[76] + x[91] <= 1
 clq370: x[77] + x[90] <= 1
 clq371: x[70] + x[117] <= 1
 clq372: x[73] + x[52] <= 1
 clq373: x[31] + x[53] <= 1
 clq374: x[142] + x[92] + x[119] <= 1
 clq375: x[109] + x[89] <= 1
 clq376: x[98] + x[80] <= 1
 clq377: x[65] + x[88] <= 1
 clq378: x[129] + x[63] <= 1
 clq379: x[130] + x[123] <= 1
 clq380: x[103] + x[30] <= 1
 clq381: x[111] + x[48] <= 1
 clq382: x[40] + x[87] <= 1
 clq383: x[1] + x[112] <= 1
 clq384: x[96] + x[15] + x[116] <= 1
 clq385: x[64] + x[147] <= 1
 clq386: x[69] + x[35] <= 1
 clq387: x[8] + x[114] <= 1
 clq388: x[18] + x[90] <= 1
 clq389: x[110] + x[6] <= 1
 clq390: x[47] + x[39] <= 1
 clq391: x[84] + x[107] <= 1
 clq392: x[86] + x[137] <= 1
 clq393: x[59] + x[117] <= 1
 clq394: x[28] + x[51] <= 1
 clq395: x[61] + x[149] <= 1
 clq396: x[101] + x[7] <= 1
 clq397: x[2] + x[14] <= 1
 clq398: x[99] + x[73] <= 1
 clq399: x[72] + x[12] <= 1
 clq400: x[60] + x[87] <= 1
 clq401: x[3] + x[83] <= 1
 clq402: x[71] + x[104] <= 1
 clq403: x[9] + x[76] <= 1
 clq404: x[44] + x[5] <= 1
 clq405: x[144] + x[145] <= 1
 clq406: x[113] + x[85] <= 1
 clq407: x[146] + x[56] <= 1
 clq408: x[115] + x[26] + x[132] <= 1
 clq409: x[54] + x[74] <= 1
 clq410: x[105] + x[38] <= 1
 clq411: x[150] + x[138] <= 1
 clq412: x[4] + x[148] <= 1
 clq413: x[10] + x[17] <= 1
 clq414: x[130] + x[23] <= 1
 clq415: x[66] + x[75] <= 1
 clq416: x[93] + x[30] <= 1
 clq417: x[118] + x[43] <= 1
 clq418: x[120] + x[41] <= 1
 clq419: x[124] + x[48] <= 1
 clq420: x[42] + x[34] + x[138] <= 1
 clq421: x[21] + x[55] <= 1
 clq422: x[32] + x[77] <= 1
 clq423: x[62] + x[136] <= 1
 clq424: x[72] + x[22] <= 1
 clq425: x[121] + x[45] <= 1
 clq426: x[126] + x[80] <= 1
 clq427: x[67] + x[52] <= 1
 clq428: x[122] + x[13] <= 1
 clq429: x[24] + x[134] <= 1
 clq430: x[94] + x[63] <= 1
 clq431: x[19] + x[134] <= 1
 clq432: x[36] + x[16] <= 1
 clq433: x[17] + x[11] + x[95] <= 1
 clq434: x[99] + x[20] <= 1
 clq435: x[69] + x[31] <= 1
 clq436: x[133] + x[89] <= 1
 clq437: x[67] + x[27] <= 1
 clq438: x[91] + x[106] <= 1
 clq439: x[131] + x[88] <= 1
 clq440: x[18] + x[58] <= 1
 clq441: x[123] + x[53] <= 1
 clq442: x[39] + x[46] <= 1
 clq443: x[80] + x[127] <= 1
 clq444: x[140] + x[108] <= 1
 clq445: x[1] + x[59] <= 1
 clq446: x[64] + x[57] + x[21] <= 1
 clq447: x[8] + x[84] <= 1
 clq448: x[110] + x[41] <= 1
 clq449: x[47] + x[6] <= 1
 clq450: x[112] + x[97] <= 1
 clq451: x[50] + x[146] <= 1
 clq452: x[86] + x[55] <= 1
 clq453: x[28] + x[61] <= 1
 clq454: x[101] + x[82] <= 1
 clq455: x[2] + x[81] <= 1
 clq456: x[65] + x[66] <= 1
 clq457: x[14] + x[102] <= 1
 clq458: x[79] + x[63] <= 1
 clq459: x[60] + x[93] <= 1
 clq460: x[3] + x[49] <= 1
 clq461: x[83] + x[48] <= 1
 clq462: x[71] + x[148] <= 1
 clq463: x[9] + x[147] <= 1
 clq464: x[103] + x[90] <= 1
 clq465: x[44] + x[33] <= 1
 clq466: x[143] + x[27] <= 1
 clq467: x[144] + x[89] <= 1
 clq468: x[113] + x[145] <= 1
 clq469: x[54] + x[35] <= 1
 clq470: x[105] + x[73] <= 1
 clq471: x[29] + x[114] <= 1
 clq472: x[3] + x[150] <= 1
 clq473: x[4] + x[23] <= 1
 clq474: x[10] + x[19] <= 1
 clq475: x[38] + x[98] <= 1
 clq476: x[40] + x[94] <= 1
 clq477: x[56] + x[116] <= 1
 clq478: x[70] + x[104] <= 1
 clq479: x[74] + x[36] <= 1
 clq480: x[78] + x[31] <= 1
 clq481: x[85] + x[117] <= 1
 clq482: x[107] + x[12] <= 1
 clq483: x[118] + x[108] <= 1
 clq484: x[120] + x[25] <= 1
 clq485: x[124] + x[121] <= 1
 clq486: x[5] + x[129] <= 1
 clq487: x[7] + x[45] <= 1
 clq488: x[32] + x[135] <= 1
 clq489: x[139] + x[136] <= 1
 clq490: x[74] + x[62] <= 1
 clq491: x[22] + x[75] <= 1
 clq492: x[126] + x[91] <= 1
 clq493: x[141] + x[30] <= 1
 clq494: x[122] + x[125] <= 1
 clq495: x[140] + x[24] + x[46] <= 1
 clq496: x[76] + x[51] <= 1
 clq497: x[77] + x[20] <= 1
 clq498: x[109] + x[16] + x[91] <= 1
 clq499: x[50] + x[92] <= 1
 clq500: x[13] + x[111] <= 1
 clq501: x[100] + x[53] <= 1
 clq502: x[42] + x[149] <= 1
 clq503: x[52] + x[123] <= 1
 clq504: x[105] + x[106] <= 1
 clq505: x[29] + x[88] <= 1
 clq506: x[137] + x[43] <= 1
 clq507: x[68] + x[58] <= 1
 clq508: x[90] + x[127] <= 1
 clq509: x[59] + x[87] <= 1
 clq510: x[1] + x[18] <= 1
 clq511: x[96] + x[115] <= 1
 clq512: x[69] + x[108] <= 1
 clq513: x[8] + x[61] <= 1
 clq514: x[110] + x[89] <= 1
 clq515: x[47] + x[11] <= 1
 clq516: x[112] + x[76] <= 1
 clq517: x[84] + x[146] <= 1
 clq518: x[142] + x[58] <= 1
 clq519: x[86] + x[82] <= 1
 clq520: x[28] + x[150] <= 1
 clq521: x[101] + x[103] <= 1
 clq522: x[2] + x[60] <= 1
 clq523: x[65] + x[102] <= 1
 clq524: x[130] + x[19] <= 1
 clq525: x[99] + x[145] <= 1
 clq526: x[72] + x[73] <= 1
 clq527: x[14] + x[131] <= 1
 clq528: x[79] + x[5] <= 1
 clq529: x[81] + x[148] <= 1
 clq530: x[83] + x[39] <= 1
 clq531: x[49] + x[117] <= 1
 clq532: x[71] + x[97] <= 1
 clq533: x[9] + x[45] <= 1
 clq534: x[44] + x[12] <= 1
 clq535: x[143] + x[87] <= 1
 clq536: x[144] + x[129] <= 1
 clq537: x[113] + x[125] <= 1
 clq538: x[54] + x[93] <= 1
 clq539: x[15] + x[121] <= 1
 clq540: x[4] + x[40] <= 1
 clq541: x[10] + x[62] <= 1
 clq542: x[49] + x[23] <= 1
 clq543: x[38] + x[32] <= 1
 clq544: x[56] + x[128] <= 1
 clq545: x[66] + x[114] <= 1
 clq546: x[70] + x[80] <= 1
 clq547: x[78] + x[136] <= 1
 clq548: x[9] + x[85] <= 1
 clq549: x[107] + x[36] <= 1
 clq550: x[118] + x[27] <= 1
 clq551: x[120] + x[75] <= 1
 clq552: x[124] + x[98] <= 1
 clq553: x[6] + x[139] <= 1
 clq554: x[7] + x[67] <= 1
 clq555: x[104] + x[33] <= 1
 clq556: x[107] + x[22] <= 1
 clq557: x[126] + x[111] <= 1
 clq558: x[34] + x[31] <= 1
 clq559: x[141] + x[132] <= 1
 clq560: x[26] + x[137] <= 1
 clq561: x[50] + x[147] <= 1
 clq562: x[148] + x[122] <= 1
 clq563: x[135] + x[95] + x[52] <= 1
 clq564: x[41] + x[106] <= 1
 clq565: x[77] + x[75] <= 1
 clq566: x[25] + x[20] <= 1
 clq567: x[26] + x[94] <= 1
 clq568: x[145] + x[55] <= 1
 clq569: x[51] + x[100] <= 1
 clq570: x[35] + x[13] <= 1
 clq571: x[92] + x[37] <= 1
 clq572: x[133] + x[149] <= 1
 clq573: x[17] + x[88] <= 1
 clq574: x[43] + x[134] <= 1
 clq575: x[63] + x[53] <= 1
 clq576: x[123] + x[97] <= 1
 clq577: x[41] + x[30] <= 1
 clq578: x[25] + x[48] <= 1
 clq579: x[59] + x[127] <= 1
 clq580: x[1] + x[28] <= 1
 clq581: x[96] + x[18] <= 1
 clq582: x[64] + x[81] <= 1
 clq583: x[68] + x[123] <= 1
 clq584: x[69] + x[90] <= 1
 clq585: x[8] + x[22] <= 1
 clq586: x[110] + x[87] <= 1
 clq587: x[47] + x[150] <= 1
 clq588: x[112] + x[108] <= 1
 clq589: x[84] + x[93] <= 1
 clq590: x[142] + x[15] <= 1
 clq591: x[86] + x[31] <= 1
 clq592: x[61] + x[147] <= 1
 clq593: x[101] + x[124] <= 1
 clq594: x[2] + x[57] <= 1
 clq595: x[65] + x[4] <= 1
 clq596: x[130] + x[12] <= 1
 clq597: x[99] + x[74] <= 1
 clq598: x[72] + x[85] <= 1
 clq599: x[14] + x[115] <= 1
 clq600: x[18] + x[79] <= 1
 clq601: x[60] + x[116] <= 1
 clq602: x[3] + x[29] <= 1
 clq603: x[99] + x[83] <= 1
 clq604: x[71] + x[131] <= 1
 clq605: x[103] + x[38] <= 1
 clq606: x[44] + x[13] <= 1
 clq607: x[143] + x[146] <= 1
 clq608: x[144] + x[137] <= 1
 clq609: x[113] + x[70] <= 1
 clq610: x[54] + x[128] <= 1
 clq611: x[105] + x[24] <= 1
 clq612: x[10] + x[109] <= 1
 clq613: x[101] + x[23] <= 1
 clq614: x[40] + x[138] <= 1
 clq615: x[44] + x[56] <= 1
 clq616: x[66] + x[125] <= 1
 clq617: x[10] + x[78] <= 1
 clq618: x[114] + x[67] <= 1
 clq619: x[118] + x[92] <= 1
 clq620: x[120] + x[147] <= 1
 clq621: x[5] + x[104] <= 1
 clq622: x[146] + x[129] <= 1
 clq623: x[6] + x[98] <= 1
 clq624: x[7] + x[34] <= 1
 clq625: x[42] + x[58] <= 1
 clq626: x[21] + x[63] <= 1
 clq627: x[107] + x[32] <= 1
 clq628: x[102] + x[43] <= 1
 clq629: x[139] + x[35] <= 1
 clq630: x[62] + x[39] <= 1
 clq631: x[121] + x[100] <= 1
 clq632: x[126] + x[89] <= 1
 clq633: x[45] + x[19] <= 1
 clq634: x[141] + x[134] <= 1
 clq635: x[122] + x[16] <= 1
 clq636: x[76] + x[36] <= 1
 clq637: x[77] + x[136] <= 1
 clq638: x[94] + x[58] <= 1
 clq639: x[117] + x[51] <= 1
 clq640: x[55] + x[20] <= 1
 clq641: x[11] + x[138] <= 1
 clq642: x[73] + x[119] <= 1
 clq643: x[133] + x[111] <= 1
 clq644: x[80] + x[53] <= 1
 clq645: x[149] + x[27] <= 1
 clq646: x[106] + x[132] <= 1
 clq647: x[42] + x[88] <= 1
 clq648: x[82] + x[33] <= 1
 clq649: x[76] + x[30] <= 1
 clq650: x[25] + x[46] <= 1
 clq651: x[50] + x[48] <= 1
 clq652: x[127] + x[119] <= 1
 clq653: x[150] + x[37] <= 1
 clq654: x[1] + x[64] <= 1
 clq655: x[96] + x[127] <= 1
 clq656: x[68] + x[20] <= 1
 clq657: x[69] + x[62] <= 1
 clq658: x[8] + x[24] <= 1
 clq659: x[110] + x[91] <= 1
 clq660: x[47] + x[123] <= 1
 clq661: x[112] + x[22] <= 1
 clq662: x[84] + x[108] <= 1
 clq663: x[142] + x[95] <= 1
 clq664: x[86] + x[59] <= 1
 clq665: x[28] + x[57] <= 1
 clq666: x[61] + x[87] <= 1
 clq667: x[2] + x[79] <= 1
 clq668: x[65] + x[38] <= 1
 clq669: x[130] + x[7] <= 1
 clq670: x[72] + x[55] <= 1
 clq671: x[14] + x[80] <= 1
 clq672: x[81] + x[117] <= 1
 clq673: x[60] + x[78] <= 1
 clq674: x[3] + x[54] <= 1
 clq675: x[83] + x[116] <= 1
 clq676: x[49] + x[128] <= 1
 clq677: x[71] + x[56] <= 1
 clq678: x[9] + x[104] <= 1
 clq679: x[103] + x[120] <= 1
 clq680: x[143] + x[131] <= 1
 clq681: x[144] + x[148] <= 1
 clq682: x[113] + x[135] <= 1
 clq683: x[115] + x[134] <= 1
 clq684: x[105] + x[70] <= 1
 clq685: x[15] + x[23] <= 1
 clq686: x[29] + x[77] <= 1
 clq687: x[4] + x[93] <= 1
 clq688: x[40] + x[27] <= 1
 clq689: x[66] + x[124] <= 1
 clq690: x[74] + x[133] <= 1
 clq691: x[85] + x[5] <= 1
 clq692: x[114] + x[92] <= 1
 clq693: x[118] + x[94] <= 1
 clq694: x[129] + x[75] <= 1
 clq695: x[6] + x[126] <= 1
 clq696: x[17] + x[106] <= 1
 clq697: x[21] + x[32] <= 1
 clq698: x[98] + x[136] <= 1
 clq699: x[102] + x[53] <= 1
 clq700: x[139] + x[12] <= 1
 clq701: x[140] + x[122] <= 1
 clq702: x[121] + x[31] <= 1
 clq703: x[34] + x[109] <= 1
 clq704: x[67] + x[90] <= 1
 clq705: x[45] + x[13] <= 1
 clq706: x[141] + x[88] <= 1
 clq707: x[26] + x[89] <= 1
 clq708: x[125] + x[30] <= 1
 clq709: x[145] + x[36] <= 1
 clq710: x[41] + x[73] <= 1
 clq711: x[19] + x[149] <= 1
 clq712: x[11] + x[35] <= 1
 clq713: x[51] + x[48] <= 1
 clq714: x[100] + x[82] <= 1
 clq715: x[111] + x[132] <= 1
 clq716: x[16] + x[52] <= 1
 clq717: x[137] + x[46] <= 1
 clq718: x[43] + x[39] <= 1
 clq719: x[63] + x[37] <= 1
 clq720: x[33] + x[97] <= 1
Bounds
Binaries
 x[1] x[96] x[64] x[68] x[69] x[8] x[18] x[110] x[47] x[112] x[50] x[84]
 x[142] x[86] x[59] x[28] x[61] x[101] x[2] x[65] x[130] x[99] x[72] x[14]
 x[79] x[81] x[57] x[60] x[3] x[83] x[49] x[71] x[9] x[103] x[44] x[143]
 x[144] x[113] x[146] x[115] x[54] x[105] x[15] x[29] x[150] x[4] x[10]
 x[148] x[23] x[38] x[40] x[56] x[66] x[70] x[74] x[78] x[85] x[93] x[107]
 x[114] x[118] x[120] x[124] x[5] x[129] x[6] x[7] x[104] x[42] x[17] x[21]
 x[32] x[98] x[131] x[102] x[139] x[140] x[116] x[62] x[22] x[121] x[126]
 x[34] x[67] x[45] x[141] x[26] x[147] x[122] x[125] x[135] x[12] x[145]
 x[24] x[41] x[76] x[77] x[25] x[94] x[117] x[19] x[36] x[55] x[11] x[109]
 x[51] x[73] x[20] x[35] x[31] x[92] x[138] x[95] x[133] x[89] x[13] x[100]
 x[111] x[80] x[149] x[27] x[16] x[52] x[91] x[106] x[88] x[137] x[43]
 x[90] x[58] x[134] x[82] x[39] x[63] x[75] x[123] x[33] x[53] x[30] x[46]
 x[136] x[48] x[127] x[132] x[97] x[87] x[37] x[128] x[119] x[108]
End
